; benchmark generated from python API
(set-info :status unknown)
(declare-fun L_2 () Real)
(declare-fun C () Real)
(declare-fun S_4 () Real)
(declare-fun A_3 () Real)
(declare-fun S_3 () Real)
(declare-fun A_2 () Real)
(declare-fun S_2 () Real)
(declare-fun A_1 () Real)
(declare-fun L_1 () Real)
(declare-fun A_4 () Real)
(declare-fun S_0 () Real)
(declare-fun S_1 () Real)
(declare-fun A_0 () Real)
(declare-fun L_0 () Real)
(assert
 (let ((?x744 (* (- 1.0) A_0)))
 (let ((?x769 (* (- 1.0) A_4)))
 (let ((?x1284 (* (- 1.0) C)))
 (let ((?x721 (* (- 1.0) A_2)))
 (let ((?x730 (* (- 1.0) A_1)))
 (let ((?x708 (* (- 1.0) L_0)))
 (let (($x1997 (<= (+ S_4 ?x1284 ?x769 L_2 ?x721 A_3) 0.0)))
 (let ((?x717 (* (- 1.0) L_1)))
 (let (($x647 (= ?x717 ?x708)))
 (let (($x7132 (or $x647 $x1997 (<= (+ ?x721 L_2 S_4 ?x769 A_0 ?x708 L_1 ?x730 A_3) 0.0) (<= (+ ?x721 L_2 ?x1284 S_4 ?x769 L_1 S_0 ?x744 A_3) 0.0))))
 (let ((?x1270 (* (- 3.0) C)))
 (let ((?x1287 (* (- 2.0) A_0)))
 (let (($x10470 (or $x647 (<= (+ S_4 (* (- 2.0) C) ?x769 L_1 ?x730 A_3) 0.0) (<= (+ S_4 ?x1287 ?x1270 L_0 ?x769 S_0 L_1 A_3) 0.0))))
 (let (($x4136 (<= (+ A_3 ?x769) 0.0)))
 (let (($x2531 (<= (+ A_2 (* (- 1.0) L_2) C (* (- 1.0) S_4)) 0.0)))
 (let (($x1535 (<= (+ ?x717 A_1 (* 2.0 C) (* (- 1.0) S_4)) 0.0)))
 (let (($x1232 (<= (+ (* (- 1.0) S_4) A_0 (* 3.0 C) ?x708) 0.0)))
 (let (($x2067 (<= (+ A_3 (* (- 1.0) S_4) (* (- 1.0) L_2)) 0.0)))
 (let (($x1808 (<= (+ ?x717 (* (- 1.0) S_1) A_0) 0.0)))
 (let ((?x1277 (* (- 2.0) C)))
 (let ((?x1552 (* 2.0 L_1)))
 (let (($x1756 (<= (+ A_2 (* (- 1.0) L_2) L_1 ?x730 ?x1284) 0.0)))
 (let (($x11125 (or $x647 $x1756 (<= (+ ?x1552 ?x730 ?x1277 S_4 ?x769 S_0 ?x744 A_3) 0.0))))
 (let (($x1545 (<= (+ ?x717 L_2) 0.0)))
 (let (($x10567 (or $x1545 (not $x1756) (not (<= (+ A_2 (* (- 1.0) L_2) ?x1277 L_0 ?x744) 0.0)) $x1808)))
 (let (($x6943 (or $x647 (<= (+ ?x1552 ?x730 ?x1284 S_0 (* (- 1.0) L_2) ?x744 A_2) 0.0) $x1756)))
 (let ((?x1281 (* (- 1.0) S_1)))
 (let ((?x922 (* 2.0 C)))
 (let ((?x1280 (* 2.0 A_0)))
 (let (($x1283 (<= (+ ?x1280 ?x922 ?x708 ?x1281 ?x717 L_2 ?x721) 0.0)))
 (let (($x10487 (or (not (<= (+ A_0 C ?x708 L_1 ?x730) 0.0)) (not (<= (+ C ?x717 L_2 A_1 ?x721) 0.0)) $x1283 $x1545)))
 (let (($x1568 (<= (+ ?x717 A_1 ?x1284 L_0 ?x744) 0.0)))
 (let (($x1305 (<= (+ C ?x717 L_2 A_1 ?x721) 0.0)))
 (let (($x10410 (or $x647 (<= (+ ?x1287 ?x1277 L_0 S_0 L_1 (* (- 1.0) L_2) A_2) 0.0) $x1756)))
 (let (($x1309 (<= (+ A_0 C ?x708 L_1 ?x730) 0.0)))
 (let (($x11031 (or $x1309 $x1545 $x1756 (<= (+ C (* (- 2.0) L_1) A_1 ?x1281 L_2 A_0 ?x721) 0.0))))
 (let (($x2246 (or (<= (+ A_0 ?x922 ?x708 (* (- 1.0) S_3)) 0.0) (<= (+ ?x717 A_1 C (* (- 1.0) S_3)) 0.0) (<= (+ A_2 (* (- 1.0) L_2) (* (- 1.0) S_3)) 0.0))))
 (let (($x1460 (or (<= (+ A_0 C ?x708 (* (- 1.0) S_2)) 0.0) (<= (+ ?x717 A_1 (* (- 1.0) S_2)) 0.0))))
 (and (<= ?x717 ?x708) (<= (* (- 1.0) L_2) ?x717) $x1460 $x2246 $x11031 (or $x1232 $x1545 $x1568 $x2067) $x10410 (or $x1305 $x1545 $x1568) (or $x1283 $x1545 $x1568) $x10487 (or $x1545 $x1997) $x6943 $x10567 (or $x1232 $x1535 $x1756 $x2067) $x11125 (or $x1232 $x1568 $x2067 $x2531) (or $x1232 $x1535 $x1808 $x2067 $x2531) (or $x1232 $x1535 $x2531 $x4136) $x10470 $x7132 (<= (+ ?x744 ?x1284 L_0 S_1) 0.0) (<= (+ ?x744 ?x1277 L_0 S_2) 0.0) (<= (+ ?x744 ?x1270 L_0 S_3) 0.0) (<= (+ S_4 ?x744 (* (- 4.0) C) L_0) 0.0) (<= (+ S_0 L_0 ?x744) 0.0) (<= (+ L_1 ?x730 S_1) 0.0) (<= (+ ?x1281 S_0) 0.0) (<= (+ L_1 ?x730 ?x1284 S_2) 0.0) (<= (+ S_4 ?x769 L_2) 0.0) (<= (+ (* (- 1.0) A_3) L_2 S_3) 0.0) (<= (+ (* (- 1.0) S_4) S_3) 0.0) (<= (+ S_4 ?x721 L_2 ?x1277) 0.0) (<= (+ L_1 ?x730 ?x1277 S_3) 0.0) (<= (+ S_4 L_1 ?x730 ?x1270) 0.0) (<= (+ ?x721 L_2 S_2) 0.0) (<= (+ ?x721 L_2 S_3 ?x1284) 0.0) (<= (+ (* (- 1.0) A_3) S_4 ?x1284 L_2) 0.0)))))))))))))))))))))))))))))))))))))))))
(check-sat)
